<number of tasks>
100

<cycle time>
1000

<order strength>
0.898


<task times>
1 25
2 54
3 121
4 299
5 97
6 62
7 135
8 200
9 84
10 132
11 129
12 141
13 182
14 132
15 98
16 202
17 178
18 24
19 82
20 140
21 44
22 192
23 112
24 61
25 22
26 45
27 56
28 306
29 167
30 175
31 170
32 74
33 120
34 130
35 142
36 122
37 253
38 32
39 291
40 97
41 156
42 173
43 68
44 105
45 49
46 125
47 126
48 127
49 258
50 34
51 142
52 81
53 79
54 37
55 172
56 103
57 140
58 151
59 195
60 122
61 298
62 93
63 112
64 227
65 130
66 74
67 59
68 157
69 72
70 103
71 175
72 176
73 26
74 82
75 264
76 163
77 131
78 52
79 94
80 128
81 285
82 78
83 260
84 283
85 61
86 302
87 186
88 75
89 69
90 331
91 157
92 54
93 271
94 139
95 73
96 220
97 59
98 40
99 150
100 212

<precedence relations>
1,6
2,7
3,6
3,7
4,6
4,7
5,6
5,7
6,8
6,9
6,10
7,8
7,9
7,10
8,11
8,12
8,13
8,14
9,11
9,12
9,13
9,14
10,11
10,12
10,13
10,14
11,15
11,20
12,15
12,16
12,17
12,18
13,15
13,17
14,15
14,16
14,17
14,18
14,19
14,20
15,21
15,28
16,29
16,30
16,31
17,21
17,22
18,21
18,28
19,21
19,22
20,22
21,23
21,24
22,24
22,25
23,26
23,27
24,26
24,29
25,27
25,28
26,30
26,31
26,32
26,33
27,30
27,31
27,32
28,30
28,40
28,41
29,32
29,33
30,51
30,55
31,34
31,36
32,34
32,35
32,36
33,34
33,35
33,36
34,37
34,38
35,37
35,38
36,37
36,38
37,39
37,40
37,41
38,39
38,40
38,41
39,42
39,43
39,44
39,45
40,42
40,43
40,45
40,48
41,42
42,46
43,46
43,49
43,50
44,46
44,47
44,48
44,49
45,47
45,50
46,51
46,52
47,51
48,84
48,88
49,66
49,73
50,51
50,55
51,53
51,54
51,56
52,53
52,54
52,55
52,56
53,57
53,59
54,57
55,58
56,63
56,64
57,60
58,60
59,60
59,61
60,64
60,65
61,62
61,63
62,75
62,84
63,66
63,67
63,68
63,70
64,67
64,69
65,66
65,70
66,72
67,82
68,71
68,73
68,80
69,71
69,72
70,71
70,72
70,73
71,77
71,83
71,85
72,74
72,75
72,76
73,76
74,93
75,77
75,78
75,80
76,79
77,81
78,81
78,89
79,83
79,85
79,87
80,82
81,86
81,87
82,85
83,84
83,89
83,91
84,90
84,98
85,88
85,89
86,93
87,90
87,91
88,92
89,93
91,92
92,94
92,95
92,96
93,95
94,98
94,99
95,97
96,100

<end>
